50	10005084

100077 61
100058 685
100067 186
100057 840
100068 55
100012 676
100042 659
100027 635
100057 359
100095 555
100078 354
100030 731
100081 117
100039 24
100063 639
100083 529
100030 61
100024 895
100082 871
100002 668
100069 998
100036 795
100037 386
100072 205
100039 784
100062 611
100040 38
100010 646
100049 400
100025 369
100011 41
100056 509
100097 132
100039 82
100051 589
100092 680
100024 56
100098 717
100035 580
100018 855
100089 822
100054 898
100097 393
100035 170
100002 121
100067 257
100028 208
100029 562
100049 289
100060 314
